\* Built LP *\
Minimize
OBJ: __dummy
Subject To
_C1: var_0_0_0 + var_0_1_0 = 1
_C2: var_1_0_0 + var_1_1_0 = 1
_C3: 100 var_0_0_0 + 100 var_1_0_0 <= 100
_C4: 100 var_0_1_0 + 100 var_1_1_0 <= 100
_C5: 100 var_0_0_0 + 100 var_0_1_0 <= 100
_C6: 100 var_1_0_0 + 100 var_1_1_0 <= 100
Bounds
__dummy = 0
var_0_0_0 <= 1
var_0_1_0 <= 1
var_1_0_0 <= 1
var_1_1_0 <= 1
End
